NAME : tsp10_seed42
COMMENT : Generated random TSP instance with 10 cities
COMMENT : OPTIMAL_LENGTH = 29030.675781
COMMENT : OPTIMAL_TOUR = 0 4 1 6 9 7 2 8 3 5 0
TYPE : TSP
DIMENSION : 10
EDGE_WEIGHT_TYPE : EUC_2D
NODE_COORD_SECTION
1 3745.4011 9507.1426
2 7319.9390 5986.5850
3 1560.1864 1559.9452
4 580.8361 8661.7617
5 6011.1499 7080.7261
6 205.8449 9699.0986
7 8324.4268 2123.3911
8 1818.2496 1834.0450
9 3042.4226 5247.5645
10 4319.4502 2912.2913
EOF
